Maximize
OBJ: 24 x + 4 y + 41 z + 23 w + 43 a + 83 b + 9 c
Subject To
s1: 21 x + y <= 5000
s2: 33 y + 3 z <= 6000
s2: 4 z + 4 w <= 7000
s4: 3 w + 55 a <= 1995
s5: 3 w + b + c <= 467
s6: 5 x + c + b => 200
q1 : 2 x + 45 z => 900
s7: x => 0
s8: y => 0
s9: z => 0
s10: w => 0
s11: a => 0
s12: b => 0
s13: c => 0
End

